c "678843.clq"
p edge 120 464
e 1 5
e 1 7
e 1 49
e 2 5
e 2 6
e 2 7
e 2 9
e 2 10
e 2 19
e 2 21
e 2 23
e 2 26
e 2 29
e 2 30
e 2 31
e 2 33
e 2 34
e 2 37
e 2 40
e 2 42
e 2 51
e 2 53
e 2 79
e 2 83
e 2 92
e 2 100
e 2 105
e 2 109
e 2 111
e 2 118
e 3 5
e 3 6
e 3 7
e 3 9
e 3 10
e 3 11
e 3 12
e 3 13
e 3 14
e 3 16
e 3 17
e 3 18
e 3 20
e 3 22
e 3 23
e 3 25
e 3 28
e 3 44
e 3 50
e 3 51
e 3 54
e 3 62
e 3 102
e 4 5
e 4 6
e 4 7
e 4 8
e 4 9
e 4 13
e 4 14
e 4 15
e 4 16
e 4 17
e 4 18
e 4 19
e 4 21
e 4 24
e 4 30
e 4 31
e 4 34
e 4 36
e 4 38
e 4 44
e 4 46
e 4 48
e 4 50
e 4 59
e 4 64
e 4 70
e 4 80
e 4 83
e 4 89
e 4 90
e 4 101
e 4 108
e 4 112
e 4 117
e 5 6
e 5 8
e 5 10
e 5 14
e 5 17
e 5 19
e 5 35
e 5 36
e 5 37
e 5 38
e 5 39
e 5 42
e 5 47
e 5 48
e 5 53
e 5 55
e 5 56
e 5 57
e 5 63
e 5 64
e 5 71
e 5 72
e 5 73
e 5 74
e 5 85
e 5 87
e 5 90
e 5 91
e 5 93
e 5 95
e 5 96
e 6 8
e 6 9
e 6 11
e 6 12
e 6 15
e 6 16
e 6 19
e 6 25
e 6 27
e 6 32
e 6 36
e 6 47
e 6 50
e 6 51
e 6 99
e 6 113
e 7 8
e 7 10
e 7 12
e 7 13
e 7 14
e 7 15
e 7 16
e 7 20
e 7 21
e 7 30
e 7 32
e 7 35
e 7 39
e 7 41
e 7 45
e 7 48
e 7 49
e 7 53
e 7 56
e 7 64
e 7 66
e 7 69
e 7 74
e 7 75
e 7 80
e 7 84
e 7 106
e 7 116
e 8 12
e 8 23
e 8 32
e 8 40
e 8 54
e 8 67
e 8 70
e 8 75
e 8 95
e 8 101
e 8 114
e 9 11
e 9 13
e 9 17
e 9 24
e 9 29
e 9 39
e 9 40
e 9 41
e 9 44
e 9 47
e 9 50
e 9 55
e 9 58
e 9 59
e 9 60
e 9 63
e 9 65
e 9 71
e 9 73
e 9 76
e 9 88
e 9 89
e 9 94
e 9 116
e 10 11
e 10 28
e 10 81
e 10 103
e 10 111
e 10 120
e 11 21
e 11 22
e 11 24
e 11 26
e 11 27
e 11 33
e 11 52
e 11 58
e 11 67
e 11 68
e 11 80
e 11 88
e 11 104
e 11 106
e 11 108
e 11 115
e 11 120
e 12 18
e 12 22
e 12 25
e 12 29
e 12 39
e 12 41
e 12 43
e 12 46
e 12 52
e 12 86
e 13 48
e 13 60
e 13 70
e 13 78
e 13 97
e 13 105
e 14 15
e 14 18
e 14 20
e 14 40
e 14 60
e 14 65
e 14 71
e 14 113
e 14 119
e 15 20
e 15 24
e 15 37
e 15 45
e 15 59
e 15 77
e 16 22
e 16 23
e 16 26
e 16 28
e 16 29
e 16 47
e 16 53
e 16 60
e 16 65
e 16 75
e 16 87
e 16 103
e 17 35
e 17 46
e 17 68
e 17 81
e 17 91
e 17 93
e 18 32
e 18 34
e 18 42
e 18 79
e 18 97
e 18 106
e 19 27
e 19 55
e 19 65
e 19 94
e 19 104
e 20 33
e 20 38
e 20 42
e 20 55
e 20 58
e 20 71
e 20 77
e 20 89
e 20 99
e 20 107
e 21 31
e 21 43
e 21 63
e 21 94
e 21 101
e 21 112
e 22 33
e 22 62
e 22 68
e 22 98
e 23 26
e 23 30
e 23 31
e 23 34
e 23 37
e 23 54
e 23 67
e 23 73
e 23 79
e 23 90
e 23 114
e 24 25
e 24 27
e 24 28
e 24 41
e 24 69
e 24 98
e 24 114
e 25 45
e 25 61
e 25 92
e 26 63
e 27 49
e 27 57
e 27 62
e 27 84
e 27 102
e 27 104
e 28 38
e 28 46
e 28 69
e 28 73
e 29 45
e 29 56
e 29 57
e 29 113
e 30 43
e 30 54
e 30 66
e 30 68
e 30 99
e 30 117
e 31 59
e 32 76
e 32 85
e 32 100
e 32 110
e 33 35
e 33 36
e 33 78
e 34 103
e 36 58
e 36 92
e 37 78
e 37 85
e 38 43
e 38 52
e 38 97
e 39 61
e 39 64
e 39 81
e 39 118
e 40 44
e 40 61
e 40 86
e 40 89
e 40 109
e 41 49
e 41 52
e 41 80
e 41 85
e 42 51
e 42 83
e 42 87
e 43 69
e 43 82
e 44 93
e 44 104
e 45 74
e 45 95
e 46 96
e 46 102
e 46 108
e 46 119
e 47 56
e 47 57
e 48 82
e 48 87
e 48 95
e 49 77
e 49 84
e 49 105
e 49 115
e 49 120
e 51 61
e 51 72
e 51 98
e 51 109
e 52 72
e 54 62
e 54 94
e 57 67
e 57 116
e 58 66
e 58 83
e 58 100
e 58 110
e 58 115
e 58 116
e 59 91
e 59 114
e 60 79
e 60 82
e 60 103
e 61 72
e 61 92
e 62 70
e 62 76
e 62 77
e 62 78
e 62 81
e 62 97
e 62 117
e 63 75
e 63 76
e 63 88
e 63 119
e 64 66
e 64 108
e 64 112
e 65 84
e 66 86
e 67 107
e 68 111
e 69 105
e 70 74
e 70 90
e 70 111
e 71 100
e 72 86
e 72 99
e 72 112
e 75 96
e 78 82
e 78 91
e 78 93
e 78 102
e 78 110
e 81 98
e 83 88
e 83 96
e 83 109
e 86 110
e 88 117
e 89 113
e 89 119
e 92 101
e 93 120
e 96 118
e 98 115
e 99 107
e 105 106
e 105 107
e 106 118
